; benchmark generated from python API
(set-info :status unknown)
(declare-fun cell_1_2 () Int)
(declare-fun cell_1_6 () Int)
(declare-fun cell_2_1 () Int)
(declare-fun cell_2_6 () Int)
(declare-fun cell_3_8 () Int)
(declare-fun cell_3_9 () Int)
(declare-fun cell_4_4 () Int)
(declare-fun cell_4_9 () Int)
(declare-fun cell_5_3 () Int)
(declare-fun cell_5_5 () Int)
(declare-fun cell_6_8 () Int)
(declare-fun cell_7_5 () Int)
(declare-fun cell_8_7 () Int)
(declare-fun cell_9_1 () Int)
(declare-fun cell_1_1 () Int)
(declare-fun cell_3_1 () Int)
(declare-fun cell_4_1 () Int)
(declare-fun cell_5_1 () Int)
(declare-fun cell_6_1 () Int)
(declare-fun cell_7_1 () Int)
(declare-fun cell_8_1 () Int)
(declare-fun cell_2_2 () Int)
(declare-fun cell_3_2 () Int)
(declare-fun cell_4_2 () Int)
(declare-fun cell_5_2 () Int)
(declare-fun cell_6_2 () Int)
(declare-fun cell_7_2 () Int)
(declare-fun cell_8_2 () Int)
(declare-fun cell_9_2 () Int)
(declare-fun cell_1_3 () Int)
(declare-fun cell_2_3 () Int)
(declare-fun cell_3_3 () Int)
(declare-fun cell_4_3 () Int)
(declare-fun cell_6_3 () Int)
(declare-fun cell_7_3 () Int)
(declare-fun cell_8_3 () Int)
(declare-fun cell_9_3 () Int)
(declare-fun cell_1_4 () Int)
(declare-fun cell_2_4 () Int)
(declare-fun cell_3_4 () Int)
(declare-fun cell_5_4 () Int)
(declare-fun cell_6_4 () Int)
(declare-fun cell_7_4 () Int)
(declare-fun cell_8_4 () Int)
(declare-fun cell_9_4 () Int)
(declare-fun cell_1_5 () Int)
(declare-fun cell_2_5 () Int)
(declare-fun cell_3_5 () Int)
(declare-fun cell_4_5 () Int)
(declare-fun cell_6_5 () Int)
(declare-fun cell_8_5 () Int)
(declare-fun cell_9_5 () Int)
(declare-fun cell_3_6 () Int)
(declare-fun cell_4_6 () Int)
(declare-fun cell_5_6 () Int)
(declare-fun cell_6_6 () Int)
(declare-fun cell_7_6 () Int)
(declare-fun cell_8_6 () Int)
(declare-fun cell_9_6 () Int)
(declare-fun cell_1_7 () Int)
(declare-fun cell_2_7 () Int)
(declare-fun cell_3_7 () Int)
(declare-fun cell_4_7 () Int)
(declare-fun cell_5_7 () Int)
(declare-fun cell_6_7 () Int)
(declare-fun cell_7_7 () Int)
(declare-fun cell_9_7 () Int)
(declare-fun cell_1_8 () Int)
(declare-fun cell_2_8 () Int)
(declare-fun cell_4_8 () Int)
(declare-fun cell_5_8 () Int)
(declare-fun cell_7_8 () Int)
(declare-fun cell_8_8 () Int)
(declare-fun cell_9_8 () Int)
(declare-fun cell_1_9 () Int)
(declare-fun cell_2_9 () Int)
(declare-fun cell_5_9 () Int)
(declare-fun cell_6_9 () Int)
(declare-fun cell_7_9 () Int)
(declare-fun cell_8_9 () Int)
(declare-fun cell_9_9 () Int)
(assert
 (= cell_1_2 1))
(assert
 (= cell_1_6 2))
(assert
 (= cell_2_1 2))
(assert
 (= cell_2_6 1))
(assert
 (= cell_3_8 2))
(assert
 (= cell_3_9 1))
(assert
 (= cell_4_4 1))
(assert
 (= cell_4_9 2))
(assert
 (= cell_5_3 1))
(assert
 (= cell_5_5 2))
(assert
 (= cell_6_8 1))
(assert
 (= cell_7_5 1))
(assert
 (= cell_8_7 1))
(assert
 (= cell_9_1 1))
(assert
 (let (($x47 (= cell_1_1 9)))
 (let (($x2781 (= cell_1_1 8)))
 (let (($x529 (= cell_1_1 7)))
 (let (($x3229 (= cell_1_1 6)))
 (let (($x1742 (= cell_1_1 5)))
 (let (($x1509 (= cell_1_1 4)))
 (let (($x1007 (= cell_1_1 3)))
 (let (($x3045 (= cell_1_1 2)))
 (let (($x2001 (= cell_1_1 1)))
 (or $x2001 $x3045 $x1007 $x1509 $x1742 $x3229 $x529 $x2781 $x47)))))))))))
(assert
 (let (($x4172 (= cell_2_1 2)))
 (or (= cell_2_1 1) $x4172 (= cell_2_1 3) (= cell_2_1 4) (= cell_2_1 5) (= cell_2_1 6) (= cell_2_1 7) (= cell_2_1 8) (= cell_2_1 9))))
(assert
 (let (($x568 (= cell_3_1 9)))
 (let (($x2761 (= cell_3_1 8)))
 (let (($x1609 (= cell_3_1 7)))
 (let (($x1559 (= cell_3_1 6)))
 (let (($x3495 (= cell_3_1 5)))
 (let (($x1821 (= cell_3_1 4)))
 (let (($x584 (= cell_3_1 3)))
 (let (($x645 (= cell_3_1 2)))
 (let (($x2135 (= cell_3_1 1)))
 (or $x2135 $x645 $x584 $x1821 $x3495 $x1559 $x1609 $x2761 $x568)))))))))))
(assert
 (let (($x1301 (= cell_4_1 9)))
 (let (($x1783 (= cell_4_1 8)))
 (let (($x908 (= cell_4_1 7)))
 (let (($x2094 (= cell_4_1 6)))
 (let (($x2847 (= cell_4_1 5)))
 (let (($x3124 (= cell_4_1 4)))
 (let (($x2253 (= cell_4_1 3)))
 (let (($x7843 (= cell_4_1 2)))
 (let (($x3143 (= cell_4_1 1)))
 (or $x3143 $x7843 $x2253 $x3124 $x2847 $x2094 $x908 $x1783 $x1301)))))))))))
(assert
 (let (($x27 (= cell_5_1 9)))
 (let (($x856 (= cell_5_1 8)))
 (let (($x1170 (= cell_5_1 7)))
 (let (($x1427 (= cell_5_1 6)))
 (let (($x2231 (= cell_5_1 5)))
 (let (($x1931 (= cell_5_1 4)))
 (let (($x2273 (= cell_5_1 3)))
 (let (($x2010 (= cell_5_1 2)))
 (let (($x2258 (= cell_5_1 1)))
 (or $x2258 $x2010 $x2273 $x1931 $x2231 $x1427 $x1170 $x856 $x27)))))))))))
(assert
 (let (($x2336 (= cell_6_1 9)))
 (let (($x1608 (= cell_6_1 8)))
 (let (($x1576 (= cell_6_1 7)))
 (let (($x1079 (= cell_6_1 6)))
 (let (($x1749 (= cell_6_1 5)))
 (let (($x4089 (= cell_6_1 4)))
 (let (($x597 (= cell_6_1 3)))
 (let (($x2859 (= cell_6_1 2)))
 (let (($x2735 (= cell_6_1 1)))
 (or $x2735 $x2859 $x597 $x4089 $x1749 $x1079 $x1576 $x1608 $x2336)))))))))))
(assert
 (let (($x169 (= cell_7_1 9)))
 (let (($x1714 (= cell_7_1 8)))
 (let (($x2349 (= cell_7_1 7)))
 (let (($x2678 (= cell_7_1 6)))
 (let (($x2656 (= cell_7_1 5)))
 (let (($x499 (= cell_7_1 4)))
 (let (($x3357 (= cell_7_1 3)))
 (let (($x165 (= cell_7_1 2)))
 (let (($x276 (= cell_7_1 1)))
 (or $x276 $x165 $x3357 $x499 $x2656 $x2678 $x2349 $x1714 $x169)))))))))))
(assert
 (let (($x2312 (= cell_8_1 9)))
 (let (($x2927 (= cell_8_1 8)))
 (let (($x3060 (= cell_8_1 7)))
 (let (($x205 (= cell_8_1 6)))
 (let (($x835 (= cell_8_1 5)))
 (let (($x2661 (= cell_8_1 4)))
 (let (($x1115 (= cell_8_1 3)))
 (let (($x3385 (= cell_8_1 2)))
 (let (($x770 (= cell_8_1 1)))
 (or $x770 $x3385 $x1115 $x2661 $x835 $x205 $x3060 $x2927 $x2312)))))))))))
(assert
 (let (($x502 (= cell_9_1 1)))
 (or $x502 (= cell_9_1 2) (= cell_9_1 3) (= cell_9_1 4) (= cell_9_1 5) (= cell_9_1 6) (= cell_9_1 7) (= cell_9_1 8) (= cell_9_1 9))))
(assert
 (let (($x1598 (= cell_1_2 1)))
 (or $x1598 (= cell_1_2 2) (= cell_1_2 3) (= cell_1_2 4) (= cell_1_2 5) (= cell_1_2 6) (= cell_1_2 7) (= cell_1_2 8) (= cell_1_2 9))))
(assert
 (let (($x680 (= cell_2_2 9)))
 (let (($x3021 (= cell_2_2 8)))
 (let (($x2560 (= cell_2_2 7)))
 (let (($x414 (= cell_2_2 6)))
 (let (($x789 (= cell_2_2 5)))
 (let (($x2886 (= cell_2_2 4)))
 (let (($x2279 (= cell_2_2 3)))
 (let (($x1553 (= cell_2_2 2)))
 (let (($x3508 (= cell_2_2 1)))
 (or $x3508 $x1553 $x2279 $x2886 $x789 $x414 $x2560 $x3021 $x680)))))))))))
(assert
 (let (($x828 (= cell_3_2 9)))
 (let (($x1158 (= cell_3_2 8)))
 (let (($x3221 (= cell_3_2 7)))
 (let (($x1831 (= cell_3_2 6)))
 (let (($x2147 (= cell_3_2 5)))
 (let (($x1478 (= cell_3_2 4)))
 (let (($x1354 (= cell_3_2 3)))
 (let (($x1530 (= cell_3_2 2)))
 (let (($x563 (= cell_3_2 1)))
 (or $x563 $x1530 $x1354 $x1478 $x2147 $x1831 $x3221 $x1158 $x828)))))))))))
(assert
 (let (($x1791 (= cell_4_2 9)))
 (let (($x4053 (= cell_4_2 8)))
 (let (($x1000 (= cell_4_2 7)))
 (let (($x3745 (= cell_4_2 6)))
 (let (($x225 (= cell_4_2 5)))
 (let (($x2794 (= cell_4_2 4)))
 (let (($x1049 (= cell_4_2 3)))
 (let (($x218 (= cell_4_2 2)))
 (let (($x3610 (= cell_4_2 1)))
 (or $x3610 $x218 $x1049 $x2794 $x225 $x3745 $x1000 $x4053 $x1791)))))))))))
(assert
 (let (($x722 (= cell_5_2 9)))
 (let (($x1625 (= cell_5_2 8)))
 (let (($x3626 (= cell_5_2 7)))
 (let (($x643 (= cell_5_2 6)))
 (let (($x901 (= cell_5_2 5)))
 (let (($x1111 (= cell_5_2 4)))
 (let (($x3280 (= cell_5_2 3)))
 (let (($x4175 (= cell_5_2 2)))
 (let (($x3996 (= cell_5_2 1)))
 (or $x3996 $x4175 $x3280 $x1111 $x901 $x643 $x3626 $x1625 $x722)))))))))))
(assert
 (let (($x511 (= cell_6_2 9)))
 (let (($x1283 (= cell_6_2 8)))
 (let (($x2946 (= cell_6_2 7)))
 (let (($x339 (= cell_6_2 6)))
 (let (($x2131 (= cell_6_2 5)))
 (let (($x2156 (= cell_6_2 4)))
 (let (($x2653 (= cell_6_2 3)))
 (let (($x3439 (= cell_6_2 2)))
 (let (($x2341 (= cell_6_2 1)))
 (or $x2341 $x3439 $x2653 $x2156 $x2131 $x339 $x2946 $x1283 $x511)))))))))))
(assert
 (let (($x2503 (= cell_7_2 9)))
 (let (($x312 (= cell_7_2 8)))
 (let (($x1254 (= cell_7_2 7)))
 (let (($x811 (= cell_7_2 6)))
 (let (($x660 (= cell_7_2 5)))
 (let (($x3528 (= cell_7_2 4)))
 (let (($x3642 (= cell_7_2 3)))
 (let (($x7788 (= cell_7_2 2)))
 (let (($x322 (= cell_7_2 1)))
 (or $x322 $x7788 $x3642 $x3528 $x660 $x811 $x1254 $x312 $x2503)))))))))))
(assert
 (let (($x1902 (= cell_8_2 9)))
 (let (($x837 (= cell_8_2 8)))
 (let (($x3297 (= cell_8_2 7)))
 (let (($x2134 (= cell_8_2 6)))
 (let (($x3858 (= cell_8_2 5)))
 (let (($x61 (= cell_8_2 4)))
 (let (($x802 (= cell_8_2 3)))
 (let (($x2123 (= cell_8_2 2)))
 (let (($x7672 (= cell_8_2 1)))
 (or $x7672 $x2123 $x802 $x61 $x3858 $x2134 $x3297 $x837 $x1902)))))))))))
(assert
 (let (($x2950 (= cell_9_2 2)))
 (let (($x2454 (= cell_9_2 1)))
 (or $x2454 $x2950 (= cell_9_2 3) (= cell_9_2 4) (= cell_9_2 5) (= cell_9_2 6) (= cell_9_2 7) (= cell_9_2 8) (= cell_9_2 9)))))
(assert
 (let (($x1842 (= cell_1_3 9)))
 (let (($x1065 (= cell_1_3 8)))
 (let (($x1702 (= cell_1_3 7)))
 (let (($x1712 (= cell_1_3 6)))
 (let (($x2292 (= cell_1_3 5)))
 (let (($x708 (= cell_1_3 4)))
 (let (($x2427 (= cell_1_3 3)))
 (let (($x1869 (= cell_1_3 2)))
 (let (($x2929 (= cell_1_3 1)))
 (or $x2929 $x1869 $x2427 $x708 $x2292 $x1712 $x1702 $x1065 $x1842)))))))))))
(assert
 (let (($x2052 (= cell_2_3 9)))
 (let (($x741 (= cell_2_3 8)))
 (let (($x2907 (= cell_2_3 7)))
 (let (($x2618 (= cell_2_3 6)))
 (let (($x2671 (= cell_2_3 5)))
 (let (($x1191 (= cell_2_3 4)))
 (let (($x682 (= cell_2_3 3)))
 (let (($x1245 (= cell_2_3 2)))
 (let (($x437 (= cell_2_3 1)))
 (or $x437 $x1245 $x682 $x1191 $x2671 $x2618 $x2907 $x741 $x2052)))))))))))
(assert
 (let (($x249 (= cell_3_3 9)))
 (let (($x2294 (= cell_3_3 8)))
 (let (($x3105 (= cell_3_3 7)))
 (let (($x3430 (= cell_3_3 6)))
 (let (($x1376 (= cell_3_3 5)))
 (let (($x1499 (= cell_3_3 4)))
 (let (($x74 (= cell_3_3 3)))
 (let (($x1790 (= cell_3_3 2)))
 (let (($x3228 (= cell_3_3 1)))
 (or $x3228 $x1790 $x74 $x1499 $x1376 $x3430 $x3105 $x2294 $x249)))))))))))
(assert
 (let (($x564 (= cell_4_3 9)))
 (let (($x1112 (= cell_4_3 8)))
 (let (($x2081 (= cell_4_3 7)))
 (let (($x3031 (= cell_4_3 6)))
 (let (($x1284 (= cell_4_3 5)))
 (let (($x2069 (= cell_4_3 4)))
 (let (($x2864 (= cell_4_3 3)))
 (let (($x1978 (= cell_4_3 2)))
 (let (($x2603 (= cell_4_3 1)))
 (or $x2603 $x1978 $x2864 $x2069 $x1284 $x3031 $x2081 $x1112 $x564)))))))))))
(assert
 (let (($x1319 (= cell_5_3 1)))
 (or $x1319 (= cell_5_3 2) (= cell_5_3 3) (= cell_5_3 4) (= cell_5_3 5) (= cell_5_3 6) (= cell_5_3 7) (= cell_5_3 8) (= cell_5_3 9))))
(assert
 (let (($x1621 (= cell_6_3 9)))
 (let (($x936 (= cell_6_3 8)))
 (let (($x1289 (= cell_6_3 7)))
 (let (($x486 (= cell_6_3 6)))
 (let (($x1975 (= cell_6_3 5)))
 (let (($x2685 (= cell_6_3 4)))
 (let (($x618 (= cell_6_3 3)))
 (let (($x1296 (= cell_6_3 2)))
 (let (($x3889 (= cell_6_3 1)))
 (or $x3889 $x1296 $x618 $x2685 $x1975 $x486 $x1289 $x936 $x1621)))))))))))
(assert
 (let (($x955 (= cell_7_3 9)))
 (let (($x1173 (= cell_7_3 8)))
 (let (($x2178 (= cell_7_3 7)))
 (let (($x3957 (= cell_7_3 6)))
 (let (($x2143 (= cell_7_3 5)))
 (let (($x1450 (= cell_7_3 4)))
 (let (($x2958 (= cell_7_3 3)))
 (let (($x1232 (= cell_7_3 2)))
 (let (($x1656 (= cell_7_3 1)))
 (or $x1656 $x1232 $x2958 $x1450 $x2143 $x3957 $x2178 $x1173 $x955)))))))))))
(assert
 (let (($x2434 (= cell_8_3 9)))
 (let (($x2128 (= cell_8_3 8)))
 (let (($x1892 (= cell_8_3 7)))
 (let (($x1099 (= cell_8_3 6)))
 (let (($x1919 (= cell_8_3 5)))
 (let (($x832 (= cell_8_3 4)))
 (let (($x7973 (= cell_8_3 3)))
 (let (($x415 (= cell_8_3 2)))
 (let (($x3062 (= cell_8_3 1)))
 (or $x3062 $x415 $x7973 $x832 $x1919 $x1099 $x1892 $x2128 $x2434)))))))))))
(assert
 (let (($x1020 (= cell_9_3 1)))
 (or $x1020 (= cell_9_3 2) (= cell_9_3 3) (= cell_9_3 4) (= cell_9_3 5) (= cell_9_3 6) (= cell_9_3 7) (= cell_9_3 8) (= cell_9_3 9))))
(assert
 (let (($x2479 (= cell_1_4 9)))
 (let (($x1426 (= cell_1_4 8)))
 (let (($x3701 (= cell_1_4 7)))
 (let (($x1087 (= cell_1_4 6)))
 (let (($x745 (= cell_1_4 5)))
 (let (($x641 (= cell_1_4 4)))
 (let (($x2265 (= cell_1_4 3)))
 (let (($x2414 (= cell_1_4 2)))
 (let (($x1358 (= cell_1_4 1)))
 (or $x1358 $x2414 $x2265 $x641 $x745 $x1087 $x3701 $x1426 $x2479)))))))))))
(assert
 (let (($x2347 (= cell_2_4 9)))
 (let (($x1812 (= cell_2_4 8)))
 (let (($x35 (= cell_2_4 7)))
 (let (($x2062 (= cell_2_4 6)))
 (let (($x1899 (= cell_2_4 5)))
 (let (($x3462 (= cell_2_4 4)))
 (let (($x772 (= cell_2_4 3)))
 (let (($x2757 (= cell_2_4 2)))
 (let (($x1740 (= cell_2_4 1)))
 (or $x1740 $x2757 $x772 $x3462 $x1899 $x2062 $x35 $x1812 $x2347)))))))))))
(assert
 (let (($x1274 (= cell_3_4 9)))
 (let (($x3254 (= cell_3_4 8)))
 (let (($x1642 (= cell_3_4 7)))
 (let (($x7643 (= cell_3_4 6)))
 (let (($x267 (= cell_3_4 5)))
 (let (($x1159 (= cell_3_4 4)))
 (let (($x3359 (= cell_3_4 3)))
 (let (($x1520 (= cell_3_4 2)))
 (let (($x2132 (= cell_3_4 1)))
 (or $x2132 $x1520 $x3359 $x1159 $x267 $x7643 $x1642 $x3254 $x1274)))))))))))
(assert
 (let (($x1265 (= cell_4_4 1)))
 (or $x1265 (= cell_4_4 2) (= cell_4_4 3) (= cell_4_4 4) (= cell_4_4 5) (= cell_4_4 6) (= cell_4_4 7) (= cell_4_4 8) (= cell_4_4 9))))
(assert
 (let (($x1223 (= cell_5_4 9)))
 (let (($x170 (= cell_5_4 8)))
 (let (($x3832 (= cell_5_4 7)))
 (let (($x17 (= cell_5_4 6)))
 (let (($x2940 (= cell_5_4 5)))
 (let (($x1991 (= cell_5_4 4)))
 (let (($x1585 (= cell_5_4 3)))
 (let (($x501 (= cell_5_4 2)))
 (let (($x658 (= cell_5_4 1)))
 (or $x658 $x501 $x1585 $x1991 $x2940 $x17 $x3832 $x170 $x1223)))))))))))
(assert
 (let (($x1025 (= cell_6_4 9)))
 (let (($x579 (= cell_6_4 8)))
 (let (($x1599 (= cell_6_4 7)))
 (let (($x548 (= cell_6_4 6)))
 (let (($x252 (= cell_6_4 5)))
 (let (($x1667 (= cell_6_4 4)))
 (let (($x3342 (= cell_6_4 3)))
 (let (($x2512 (= cell_6_4 2)))
 (let (($x3482 (= cell_6_4 1)))
 (or $x3482 $x2512 $x3342 $x1667 $x252 $x548 $x1599 $x579 $x1025)))))))))))
(assert
 (let (($x3012 (= cell_7_4 9)))
 (let (($x2083 (= cell_7_4 8)))
 (let (($x2241 (= cell_7_4 7)))
 (let (($x295 (= cell_7_4 6)))
 (let (($x1985 (= cell_7_4 5)))
 (let (($x516 (= cell_7_4 4)))
 (let (($x2833 (= cell_7_4 3)))
 (let (($x7798 (= cell_7_4 2)))
 (let (($x1433 (= cell_7_4 1)))
 (or $x1433 $x7798 $x2833 $x516 $x1985 $x295 $x2241 $x2083 $x3012)))))))))))
(assert
 (let (($x3988 (= cell_8_4 9)))
 (let (($x1600 (= cell_8_4 8)))
 (let (($x1956 (= cell_8_4 7)))
 (let (($x2640 (= cell_8_4 6)))
 (let (($x4052 (= cell_8_4 5)))
 (let (($x191 (= cell_8_4 4)))
 (let (($x2008 (= cell_8_4 3)))
 (let (($x2776 (= cell_8_4 2)))
 (let (($x3413 (= cell_8_4 1)))
 (or $x3413 $x2776 $x2008 $x191 $x4052 $x2640 $x1956 $x1600 $x3988)))))))))))
(assert
 (let (($x6 (= cell_9_4 1)))
 (or $x6 (= cell_9_4 2) (= cell_9_4 3) (= cell_9_4 4) (= cell_9_4 5) (= cell_9_4 6) (= cell_9_4 7) (= cell_9_4 8) (= cell_9_4 9))))
(assert
 (let (($x3812 (= cell_1_5 9)))
 (let (($x2791 (= cell_1_5 8)))
 (let (($x7841 (= cell_1_5 7)))
 (let (($x1726 (= cell_1_5 6)))
 (let (($x504 (= cell_1_5 5)))
 (let (($x3089 (= cell_1_5 4)))
 (let (($x2477 (= cell_1_5 3)))
 (let (($x2900 (= cell_1_5 2)))
 (let (($x1707 (= cell_1_5 1)))
 (or $x1707 $x2900 $x2477 $x3089 $x504 $x1726 $x7841 $x2791 $x3812)))))))))))
(assert
 (let (($x688 (= cell_2_5 9)))
 (let (($x1889 (= cell_2_5 8)))
 (let (($x7825 (= cell_2_5 7)))
 (let (($x2583 (= cell_2_5 6)))
 (let (($x3109 (= cell_2_5 5)))
 (let (($x2092 (= cell_2_5 4)))
 (let (($x2970 (= cell_2_5 3)))
 (let (($x3667 (= cell_2_5 2)))
 (let (($x1341 (= cell_2_5 1)))
 (or $x1341 $x3667 $x2970 $x2092 $x3109 $x2583 $x7825 $x1889 $x688)))))))))))
(assert
 (let (($x210 (= cell_3_5 9)))
 (let (($x2589 (= cell_3_5 8)))
 (let (($x1056 (= cell_3_5 7)))
 (let (($x2998 (= cell_3_5 6)))
 (let (($x1676 (= cell_3_5 5)))
 (let (($x1164 (= cell_3_5 4)))
 (let (($x3142 (= cell_3_5 3)))
 (let (($x4190 (= cell_3_5 2)))
 (let (($x3532 (= cell_3_5 1)))
 (or $x3532 $x4190 $x3142 $x1164 $x1676 $x2998 $x1056 $x2589 $x210)))))))))))
(assert
 (let (($x108 (= cell_4_5 9)))
 (let (($x1769 (= cell_4_5 8)))
 (let (($x2326 (= cell_4_5 7)))
 (let (($x2568 (= cell_4_5 6)))
 (let (($x2630 (= cell_4_5 5)))
 (let (($x1180 (= cell_4_5 4)))
 (let (($x2779 (= cell_4_5 3)))
 (let (($x3792 (= cell_4_5 2)))
 (let (($x3596 (= cell_4_5 1)))
 (or $x3596 $x3792 $x2779 $x1180 $x2630 $x2568 $x2326 $x1769 $x108)))))))))))
(assert
 (let (($x3261 (= cell_5_5 2)))
 (or (= cell_5_5 1) $x3261 (= cell_5_5 3) (= cell_5_5 4) (= cell_5_5 5) (= cell_5_5 6) (= cell_5_5 7) (= cell_5_5 8) (= cell_5_5 9))))
(assert
 (let (($x3086 (= cell_6_5 9)))
 (let (($x2804 (= cell_6_5 8)))
 (let (($x3235 (= cell_6_5 7)))
 (let (($x2538 (= cell_6_5 6)))
 (let (($x2255 (= cell_6_5 5)))
 (let (($x2228 (= cell_6_5 4)))
 (let (($x1817 (= cell_6_5 3)))
 (let (($x466 (= cell_6_5 2)))
 (let (($x2611 (= cell_6_5 1)))
 (or $x2611 $x466 $x1817 $x2228 $x2255 $x2538 $x3235 $x2804 $x3086)))))))))))
(assert
 (let (($x91 (= cell_7_5 1)))
 (or $x91 (= cell_7_5 2) (= cell_7_5 3) (= cell_7_5 4) (= cell_7_5 5) (= cell_7_5 6) (= cell_7_5 7) (= cell_7_5 8) (= cell_7_5 9))))
(assert
 (let (($x363 (= cell_8_5 9)))
 (let (($x2595 (= cell_8_5 8)))
 (let (($x4070 (= cell_8_5 7)))
 (let (($x1132 (= cell_8_5 6)))
 (let (($x2264 (= cell_8_5 5)))
 (let (($x457 (= cell_8_5 4)))
 (let (($x402 (= cell_8_5 3)))
 (let (($x3887 (= cell_8_5 2)))
 (let (($x3817 (= cell_8_5 1)))
 (or $x3817 $x3887 $x402 $x457 $x2264 $x1132 $x4070 $x2595 $x363)))))))))))
(assert
 (let (($x678 (= cell_9_5 2)))
 (let (($x418 (= cell_9_5 1)))
 (or $x418 $x678 (= cell_9_5 3) (= cell_9_5 4) (= cell_9_5 5) (= cell_9_5 6) (= cell_9_5 7) (= cell_9_5 8) (= cell_9_5 9)))))
(assert
 (let (($x2814 (= cell_1_6 2)))
 (or (= cell_1_6 1) $x2814 (= cell_1_6 3) (= cell_1_6 4) (= cell_1_6 5) (= cell_1_6 6) (= cell_1_6 7) (= cell_1_6 8) (= cell_1_6 9))))
(assert
 (let (($x3600 (= cell_2_6 1)))
 (or $x3600 (= cell_2_6 2) (= cell_2_6 3) (= cell_2_6 4) (= cell_2_6 5) (= cell_2_6 6) (= cell_2_6 7) (= cell_2_6 8) (= cell_2_6 9))))
(assert
 (let (($x7818 (= cell_3_6 9)))
 (let (($x284 (= cell_3_6 8)))
 (let (($x2475 (= cell_3_6 7)))
 (let (($x665 (= cell_3_6 6)))
 (let (($x155 (= cell_3_6 5)))
 (let (($x4067 (= cell_3_6 4)))
 (let (($x113 (= cell_3_6 3)))
 (let (($x1918 (= cell_3_6 2)))
 (let (($x2910 (= cell_3_6 1)))
 (or $x2910 $x1918 $x113 $x4067 $x155 $x665 $x2475 $x284 $x7818)))))))))))
(assert
 (let (($x4092 (= cell_4_6 9)))
 (let (($x3429 (= cell_4_6 8)))
 (let (($x1434 (= cell_4_6 7)))
 (let (($x2191 (= cell_4_6 6)))
 (let (($x2537 (= cell_4_6 5)))
 (let (($x1733 (= cell_4_6 4)))
 (let (($x3317 (= cell_4_6 3)))
 (let (($x1285 (= cell_4_6 2)))
 (let (($x118 (= cell_4_6 1)))
 (or $x118 $x1285 $x3317 $x1733 $x2537 $x2191 $x1434 $x3429 $x4092)))))))))))
(assert
 (let (($x283 (= cell_5_6 2)))
 (let (($x11 (= cell_5_6 1)))
 (or $x11 $x283 (= cell_5_6 3) (= cell_5_6 4) (= cell_5_6 5) (= cell_5_6 6) (= cell_5_6 7) (= cell_5_6 8) (= cell_5_6 9)))))
(assert
 (let (($x2579 (= cell_6_6 9)))
 (let (($x7668 (= cell_6_6 8)))
 (let (($x142 (= cell_6_6 7)))
 (let (($x7680 (= cell_6_6 6)))
 (let (($x2266 (= cell_6_6 5)))
 (let (($x3194 (= cell_6_6 4)))
 (let (($x606 (= cell_6_6 3)))
 (let (($x3304 (= cell_6_6 2)))
 (let (($x984 (= cell_6_6 1)))
 (or $x984 $x3304 $x606 $x3194 $x2266 $x7680 $x142 $x7668 $x2579)))))))))))
(assert
 (let (($x2853 (= cell_7_6 9)))
 (let (($x1196 (= cell_7_6 8)))
 (let (($x915 (= cell_7_6 7)))
 (let (($x487 (= cell_7_6 6)))
 (let (($x621 (= cell_7_6 5)))
 (let (($x2854 (= cell_7_6 4)))
 (let (($x2938 (= cell_7_6 3)))
 (let (($x3453 (= cell_7_6 2)))
 (let (($x2824 (= cell_7_6 1)))
 (or $x2824 $x3453 $x2938 $x2854 $x621 $x487 $x915 $x1196 $x2853)))))))))))
(assert
 (let (($x436 (= cell_8_6 9)))
 (let (($x131 (= cell_8_6 8)))
 (let (($x2784 (= cell_8_6 7)))
 (let (($x242 (= cell_8_6 6)))
 (let (($x3096 (= cell_8_6 5)))
 (let (($x428 (= cell_8_6 4)))
 (let (($x2386 (= cell_8_6 3)))
 (let (($x3157 (= cell_8_6 2)))
 (let (($x640 (= cell_8_6 1)))
 (or $x640 $x3157 $x2386 $x428 $x3096 $x242 $x2784 $x131 $x436)))))))))))
(assert
 (let (($x907 (= cell_9_6 2)))
 (let (($x3981 (= cell_9_6 1)))
 (or $x3981 $x907 (= cell_9_6 3) (= cell_9_6 4) (= cell_9_6 5) (= cell_9_6 6) (= cell_9_6 7) (= cell_9_6 8) (= cell_9_6 9)))))
(assert
 (let (($x3765 (= cell_1_7 9)))
 (let (($x2124 (= cell_1_7 8)))
 (let (($x490 (= cell_1_7 7)))
 (let (($x1122 (= cell_1_7 6)))
 (let (($x897 (= cell_1_7 5)))
 (let (($x2797 (= cell_1_7 4)))
 (let (($x2470 (= cell_1_7 3)))
 (let (($x591 (= cell_1_7 2)))
 (let (($x320 (= cell_1_7 1)))
 (or $x320 $x591 $x2470 $x2797 $x897 $x1122 $x490 $x2124 $x3765)))))))))))
(assert
 (let (($x1762 (= cell_2_7 9)))
 (let (($x553 (= cell_2_7 8)))
 (let (($x703 (= cell_2_7 7)))
 (let (($x3643 (= cell_2_7 6)))
 (let (($x354 (= cell_2_7 5)))
 (let (($x1674 (= cell_2_7 4)))
 (let (($x953 (= cell_2_7 3)))
 (let (($x2593 (= cell_2_7 2)))
 (let (($x3161 (= cell_2_7 1)))
 (or $x3161 $x2593 $x953 $x1674 $x354 $x3643 $x703 $x553 $x1762)))))))))))
(assert
 (let (($x3403 (= cell_3_7 9)))
 (let (($x957 (= cell_3_7 8)))
 (let (($x2715 (= cell_3_7 7)))
 (let (($x7848 (= cell_3_7 6)))
 (let (($x1540 (= cell_3_7 5)))
 (let (($x2450 (= cell_3_7 4)))
 (let (($x3346 (= cell_3_7 3)))
 (let (($x2436 (= cell_3_7 2)))
 (let (($x2064 (= cell_3_7 1)))
 (or $x2064 $x2436 $x3346 $x2450 $x1540 $x7848 $x2715 $x957 $x3403)))))))))))
(assert
 (let (($x1506 (= cell_4_7 9)))
 (let (($x2397 (= cell_4_7 8)))
 (let (($x2821 (= cell_4_7 7)))
 (let (($x2299 (= cell_4_7 6)))
 (let (($x2429 (= cell_4_7 5)))
 (let (($x2812 (= cell_4_7 4)))
 (let (($x2129 (= cell_4_7 3)))
 (let (($x1491 (= cell_4_7 2)))
 (let (($x1314 (= cell_4_7 1)))
 (or $x1314 $x1491 $x2129 $x2812 $x2429 $x2299 $x2821 $x2397 $x1506)))))))))))
(assert
 (let (($x538 (= cell_5_7 9)))
 (let (($x4093 (= cell_5_7 8)))
 (let (($x1849 (= cell_5_7 7)))
 (let (($x386 (= cell_5_7 6)))
 (let (($x3619 (= cell_5_7 5)))
 (let (($x1035 (= cell_5_7 4)))
 (let (($x1535 (= cell_5_7 3)))
 (let (($x788 (= cell_5_7 2)))
 (let (($x1273 (= cell_5_7 1)))
 (or $x1273 $x788 $x1535 $x1035 $x3619 $x386 $x1849 $x4093 $x538)))))))))))
(assert
 (let (($x3081 (= cell_6_7 9)))
 (let (($x223 (= cell_6_7 8)))
 (let (($x2508 (= cell_6_7 7)))
 (let (($x336 (= cell_6_7 6)))
 (let (($x791 (= cell_6_7 5)))
 (let (($x3608 (= cell_6_7 4)))
 (let (($x900 (= cell_6_7 3)))
 (let (($x2432 (= cell_6_7 2)))
 (let (($x1739 (= cell_6_7 1)))
 (or $x1739 $x2432 $x900 $x3608 $x791 $x336 $x2508 $x223 $x3081)))))))))))
(assert
 (let (($x51 (= cell_7_7 9)))
 (let (($x1052 (= cell_7_7 8)))
 (let (($x1799 (= cell_7_7 7)))
 (let (($x375 (= cell_7_7 6)))
 (let (($x3071 (= cell_7_7 5)))
 (let (($x1867 (= cell_7_7 4)))
 (let (($x525 (= cell_7_7 3)))
 (let (($x335 (= cell_7_7 2)))
 (let (($x2935 (= cell_7_7 1)))
 (or $x2935 $x335 $x525 $x1867 $x3071 $x375 $x1799 $x1052 $x51)))))))))))
(assert
 (let (($x3368 (= cell_8_7 1)))
 (or $x3368 (= cell_8_7 2) (= cell_8_7 3) (= cell_8_7 4) (= cell_8_7 5) (= cell_8_7 6) (= cell_8_7 7) (= cell_8_7 8) (= cell_8_7 9))))
(assert
 (let (($x775 (= cell_9_7 1)))
 (or $x775 (= cell_9_7 2) (= cell_9_7 3) (= cell_9_7 4) (= cell_9_7 5) (= cell_9_7 6) (= cell_9_7 7) (= cell_9_7 8) (= cell_9_7 9))))
(assert
 (let (($x3557 (= cell_1_8 9)))
 (let (($x2985 (= cell_1_8 8)))
 (let (($x25 (= cell_1_8 7)))
 (let (($x434 (= cell_1_8 6)))
 (let (($x4069 (= cell_1_8 5)))
 (let (($x7748 (= cell_1_8 4)))
 (let (($x2839 (= cell_1_8 3)))
 (let (($x3207 (= cell_1_8 2)))
 (let (($x2119 (= cell_1_8 1)))
 (or $x2119 $x3207 $x2839 $x7748 $x4069 $x434 $x25 $x2985 $x3557)))))))))))
(assert
 (let (($x2638 (= cell_2_8 9)))
 (let (($x700 (= cell_2_8 8)))
 (let (($x2533 (= cell_2_8 7)))
 (let (($x1500 (= cell_2_8 6)))
 (let (($x3308 (= cell_2_8 5)))
 (let (($x1045 (= cell_2_8 4)))
 (let (($x1489 (= cell_2_8 3)))
 (let (($x396 (= cell_2_8 2)))
 (let (($x1878 (= cell_2_8 1)))
 (or $x1878 $x396 $x1489 $x1045 $x3308 $x1500 $x2533 $x700 $x2638)))))))))))
(assert
 (let (($x639 (= cell_3_8 2)))
 (or (= cell_3_8 1) $x639 (= cell_3_8 3) (= cell_3_8 4) (= cell_3_8 5) (= cell_3_8 6) (= cell_3_8 7) (= cell_3_8 8) (= cell_3_8 9))))
(assert
 (let (($x380 (= cell_4_8 9)))
 (let (($x2093 (= cell_4_8 8)))
 (let (($x177 (= cell_4_8 7)))
 (let (($x236 (= cell_4_8 6)))
 (let (($x2485 (= cell_4_8 5)))
 (let (($x970 (= cell_4_8 4)))
 (let (($x188 (= cell_4_8 3)))
 (let (($x1081 (= cell_4_8 2)))
 (let (($x2296 (= cell_4_8 1)))
 (or $x2296 $x1081 $x188 $x970 $x2485 $x236 $x177 $x2093 $x380)))))))))))
(assert
 (let (($x2858 (= cell_5_8 9)))
 (let (($x4049 (= cell_5_8 8)))
 (let (($x3556 (= cell_5_8 7)))
 (let (($x7662 (= cell_5_8 6)))
 (let (($x4050 (= cell_5_8 5)))
 (let (($x2139 (= cell_5_8 4)))
 (let (($x1280 (= cell_5_8 3)))
 (let (($x1863 (= cell_5_8 2)))
 (let (($x1675 (= cell_5_8 1)))
 (or $x1675 $x1863 $x1280 $x2139 $x4050 $x7662 $x3556 $x4049 $x2858)))))))))))
(assert
 (let (($x1619 (= cell_6_8 1)))
 (or $x1619 (= cell_6_8 2) (= cell_6_8 3) (= cell_6_8 4) (= cell_6_8 5) (= cell_6_8 6) (= cell_6_8 7) (= cell_6_8 8) (= cell_6_8 9))))
(assert
 (let (($x2502 (= cell_7_8 9)))
 (let (($x1100 (= cell_7_8 8)))
 (let (($x4062 (= cell_7_8 7)))
 (let (($x1421 (= cell_7_8 6)))
 (let (($x1213 (= cell_7_8 5)))
 (let (($x2626 (= cell_7_8 4)))
 (let (($x3399 (= cell_7_8 3)))
 (let (($x1263 (= cell_7_8 2)))
 (let (($x793 (= cell_7_8 1)))
 (or $x793 $x1263 $x3399 $x2626 $x1213 $x1421 $x4062 $x1100 $x2502)))))))))))
(assert
 (let (($x600 (= cell_8_8 2)))
 (let (($x3881 (= cell_8_8 1)))
 (or $x3881 $x600 (= cell_8_8 3) (= cell_8_8 4) (= cell_8_8 5) (= cell_8_8 6) (= cell_8_8 7) (= cell_8_8 8) (= cell_8_8 9)))))
(assert
 (let (($x3445 (= cell_9_8 2)))
 (let (($x3666 (= cell_9_8 1)))
 (or $x3666 $x3445 (= cell_9_8 3) (= cell_9_8 4) (= cell_9_8 5) (= cell_9_8 6) (= cell_9_8 7) (= cell_9_8 8) (= cell_9_8 9)))))
(assert
 (let (($x1101 (= cell_1_9 9)))
 (let (($x1177 (= cell_1_9 8)))
 (let (($x1574 (= cell_1_9 7)))
 (let (($x2150 (= cell_1_9 6)))
 (let (($x2541 (= cell_1_9 5)))
 (let (($x350 (= cell_1_9 4)))
 (let (($x3850 (= cell_1_9 3)))
 (let (($x820 (= cell_1_9 2)))
 (let (($x2692 (= cell_1_9 1)))
 (or $x2692 $x820 $x3850 $x350 $x2541 $x2150 $x1574 $x1177 $x1101)))))))))))
(assert
 (let (($x4211 (= cell_2_9 9)))
 (let (($x3837 (= cell_2_9 8)))
 (let (($x1129 (= cell_2_9 7)))
 (let (($x2111 (= cell_2_9 6)))
 (let (($x3204 (= cell_2_9 5)))
 (let (($x374 (= cell_2_9 4)))
 (let (($x3247 (= cell_2_9 3)))
 (let (($x1041 (= cell_2_9 2)))
 (let (($x3037 (= cell_2_9 1)))
 (or $x3037 $x1041 $x3247 $x374 $x3204 $x2111 $x1129 $x3837 $x4211)))))))))))
(assert
 (let (($x3627 (= cell_3_9 1)))
 (or $x3627 (= cell_3_9 2) (= cell_3_9 3) (= cell_3_9 4) (= cell_3_9 5) (= cell_3_9 6) (= cell_3_9 7) (= cell_3_9 8) (= cell_3_9 9))))
(assert
 (let (($x1130 (= cell_4_9 2)))
 (or (= cell_4_9 1) $x1130 (= cell_4_9 3) (= cell_4_9 4) (= cell_4_9 5) (= cell_4_9 6) (= cell_4_9 7) (= cell_4_9 8) (= cell_4_9 9))))
(assert
 (let (($x1575 (= cell_5_9 9)))
 (let (($x3227 (= cell_5_9 8)))
 (let (($x531 (= cell_5_9 7)))
 (let (($x1203 (= cell_5_9 6)))
 (let (($x3249 (= cell_5_9 5)))
 (let (($x2815 (= cell_5_9 4)))
 (let (($x2464 (= cell_5_9 3)))
 (let (($x309 (= cell_5_9 2)))
 (let (($x3121 (= cell_5_9 1)))
 (or $x3121 $x309 $x2464 $x2815 $x3249 $x1203 $x531 $x3227 $x1575)))))))))))
(assert
 (let (($x1424 (= cell_6_9 2)))
 (let (($x633 (= cell_6_9 1)))
 (or $x633 $x1424 (= cell_6_9 3) (= cell_6_9 4) (= cell_6_9 5) (= cell_6_9 6) (= cell_6_9 7) (= cell_6_9 8) (= cell_6_9 9)))))
(assert
 (let (($x2632 (= cell_7_9 9)))
 (let (($x3521 (= cell_7_9 8)))
 (let (($x7685 (= cell_7_9 7)))
 (let (($x2358 (= cell_7_9 6)))
 (let (($x4025 (= cell_7_9 5)))
 (let (($x1860 (= cell_7_9 4)))
 (let (($x2445 (= cell_7_9 3)))
 (let (($x360 (= cell_7_9 2)))
 (let (($x1539 (= cell_7_9 1)))
 (or $x1539 $x360 $x2445 $x1860 $x4025 $x2358 $x7685 $x3521 $x2632)))))))))))
(assert
 (let (($x1048 (= cell_8_9 2)))
 (let (($x2542 (= cell_8_9 1)))
 (or $x2542 $x1048 (= cell_8_9 3) (= cell_8_9 4) (= cell_8_9 5) (= cell_8_9 6) (= cell_8_9 7) (= cell_8_9 8) (= cell_8_9 9)))))
(assert
 (let (($x2163 (= cell_9_9 2)))
 (let (($x1944 (= cell_9_9 1)))
 (or $x1944 $x2163 (= cell_9_9 3) (= cell_9_9 4) (= cell_9_9 5) (= cell_9_9 6) (= cell_9_9 7) (= cell_9_9 8) (= cell_9_9 9)))))
(assert
 (and (distinct cell_1_1 cell_1_2 cell_1_3 cell_1_4 cell_1_5 cell_1_6 cell_1_7 cell_1_8 cell_1_9) true))
(assert
 (and (distinct cell_2_1 cell_2_2 cell_2_3 cell_2_4 cell_2_5 cell_2_6 cell_2_7 cell_2_8 cell_2_9) true))
(assert
 (and (distinct cell_3_1 cell_3_2 cell_3_3 cell_3_4 cell_3_5 cell_3_6 cell_3_7 cell_3_8 cell_3_9) true))
(assert
 (and (distinct cell_4_1 cell_4_2 cell_4_3 cell_4_4 cell_4_5 cell_4_6 cell_4_7 cell_4_8 cell_4_9) true))
(assert
 (and (distinct cell_5_1 cell_5_2 cell_5_3 cell_5_4 cell_5_5 cell_5_6 cell_5_7 cell_5_8 cell_5_9) true))
(assert
 (and (distinct cell_6_1 cell_6_2 cell_6_3 cell_6_4 cell_6_5 cell_6_6 cell_6_7 cell_6_8 cell_6_9) true))
(assert
 (and (distinct cell_7_1 cell_7_2 cell_7_3 cell_7_4 cell_7_5 cell_7_6 cell_7_7 cell_7_8 cell_7_9) true))
(assert
 (and (distinct cell_8_1 cell_8_2 cell_8_3 cell_8_4 cell_8_5 cell_8_6 cell_8_7 cell_8_8 cell_8_9) true))
(assert
 (and (distinct cell_9_1 cell_9_2 cell_9_3 cell_9_4 cell_9_5 cell_9_6 cell_9_7 cell_9_8 cell_9_9) true))
(assert
 (and (distinct cell_1_1 cell_2_1 cell_3_1 cell_4_1 cell_5_1 cell_6_1 cell_7_1 cell_8_1 cell_9_1) true))
(assert
 (and (distinct cell_1_2 cell_2_2 cell_3_2 cell_4_2 cell_5_2 cell_6_2 cell_7_2 cell_8_2 cell_9_2) true))
(assert
 (and (distinct cell_1_3 cell_2_3 cell_3_3 cell_4_3 cell_5_3 cell_6_3 cell_7_3 cell_8_3 cell_9_3) true))
(assert
 (and (distinct cell_1_4 cell_2_4 cell_3_4 cell_4_4 cell_5_4 cell_6_4 cell_7_4 cell_8_4 cell_9_4) true))
(assert
 (and (distinct cell_1_5 cell_2_5 cell_3_5 cell_4_5 cell_5_5 cell_6_5 cell_7_5 cell_8_5 cell_9_5) true))
(assert
 (and (distinct cell_1_6 cell_2_6 cell_3_6 cell_4_6 cell_5_6 cell_6_6 cell_7_6 cell_8_6 cell_9_6) true))
(assert
 (and (distinct cell_1_7 cell_2_7 cell_3_7 cell_4_7 cell_5_7 cell_6_7 cell_7_7 cell_8_7 cell_9_7) true))
(assert
 (and (distinct cell_1_8 cell_2_8 cell_3_8 cell_4_8 cell_5_8 cell_6_8 cell_7_8 cell_8_8 cell_9_8) true))
(assert
 (and (distinct cell_1_9 cell_2_9 cell_3_9 cell_4_9 cell_5_9 cell_6_9 cell_7_9 cell_8_9 cell_9_9) true))
(assert
 (and (distinct cell_1_1 cell_1_2 cell_1_3 cell_2_1 cell_2_2 cell_2_3 cell_3_1 cell_3_2 cell_3_3) true))
(assert
 (and (distinct cell_1_4 cell_1_5 cell_1_6 cell_2_4 cell_2_5 cell_2_6 cell_3_4 cell_3_5 cell_3_6) true))
(assert
 (and (distinct cell_1_7 cell_1_8 cell_1_9 cell_2_7 cell_2_8 cell_2_9 cell_3_7 cell_3_8 cell_3_9) true))
(assert
 (and (distinct cell_4_1 cell_4_2 cell_4_3 cell_5_1 cell_5_2 cell_5_3 cell_6_1 cell_6_2 cell_6_3) true))
(assert
 (and (distinct cell_4_4 cell_4_5 cell_4_6 cell_5_4 cell_5_5 cell_5_6 cell_6_4 cell_6_5 cell_6_6) true))
(assert
 (and (distinct cell_4_7 cell_4_8 cell_4_9 cell_5_7 cell_5_8 cell_5_9 cell_6_7 cell_6_8 cell_6_9) true))
(assert
 (and (distinct cell_7_1 cell_7_2 cell_7_3 cell_8_1 cell_8_2 cell_8_3 cell_9_1 cell_9_2 cell_9_3) true))
(assert
 (and (distinct cell_7_4 cell_7_5 cell_7_6 cell_8_4 cell_8_5 cell_8_6 cell_9_4 cell_9_5 cell_9_6) true))
(assert
 (and (distinct cell_7_7 cell_7_8 cell_7_9 cell_8_7 cell_8_8 cell_8_9 cell_9_7 cell_9_8 cell_9_9) true))
(assert
 (let (($x1083 (and (distinct cell_5_9 cell_6_8 cell_7_7 cell_8_6) true)))
 (let (($x1856 (and (distinct cell_2_9 cell_3_8 cell_4_7 cell_5_6 cell_6_5 cell_7_4 cell_8_3 cell_9_2) true)))
 (let (($x3843 (and (distinct cell_1_8 cell_2_7 cell_3_6 cell_4_5 cell_5_4 cell_6_3 cell_7_2 cell_8_1) true)))
 (let (($x2130 (and (distinct cell_1_5 cell_2_4 cell_3_3 cell_4_2) true)))
 (let (($x268 (and (distinct cell_5_1 cell_6_2 cell_7_3 cell_8_4) true)))
 (let (($x3779 (and (distinct cell_2_1 cell_3_2 cell_4_3 cell_5_4 cell_6_5 cell_7_6 cell_8_7 cell_9_8) true)))
 (let (($x2235 (and (distinct cell_1_2 cell_2_3 cell_3_4 cell_4_5 cell_5_6 cell_6_7 cell_7_8 cell_8_9) true)))
 (let (($x783 (and (distinct cell_1_5 cell_2_6 cell_3_7 cell_4_8) true)))
 (and $x783 $x2235 $x3779 $x268 $x2130 $x3843 $x1856 $x1083))))))))))
(assert
 (= cell_6_3 2))
(check-sat)
